p cnf 573 2042
c max 6 7 8 9 10 11 12 13 14 15 16 17 18 19 20 21 22 23 24 25 26 27 28 29 30 31 32 33 34 35 36 37 109 110 111 112 113 114 115 116 117 118 119 120 121 122 123 124 141 142 143 144 145 146 147 148 149 150 151 152 153 154 155 156 244 245 246 247 248 249 250 251 252 253 254 255 256 257 258 259 347 348 349 350 351 352 353 354 355 356 357 358 359 360 361 362 450 451 452 453 454 455 456 457 458 459 460 461 462 463 464 465 466 467 468 469 470 471 472 473 474 475 476 477 478 479 480 481 482 483 484 485 486 487 488 489 490 491 492 493 494 495 496 497 498 499 500 501 502 503 504 505 506 507 508 509 510 511 512 513 514 515 516 517 522 523 524 525 530 531 532 533 538 539 540 541 546 547 548 549 551 552 553 554 556 557 558 559 561 562 563 564 568 569 573 0
c ind 1 2 3 4 5 38 39 40 41 42 43 44 45 46 47 48 49 50 51 52 53 54 55 56 57 58 59 60 61 62 63 64 65 66 67 68 69 70 71 72 73 74 75 76 77 78 79 80 81 82 83 84 85 86 87 88 89 90 91 92 93 94 95 96 97 98 99 100 101 102 103 104 105 106 107 125 126 127 128 129 130 131 132 133 134 135 136 137 138 139 140 157 158 159 160 161 162 163 164 165 166 167 168 169 170 171 172 173 174 175 176 177 178 179 180 181 182 183 184 185 186 187 188 189 190 191 192 193 194 195 196 197 198 199 200 201 202 203 204 205 206 207 208 209 210 211 212 213 214 215 216 217 218 219 220 221 222 223 224 225 226 228 229 230 231 232 233 234 235 236 237 238 239 240 241 242 243 260 261 262 263 264 265 266 267 268 269 270 271 272 273 274 275 276 277 278 279 280 281 282 283 284 285 286 287 288 289 290 291 292 293 294 295 296 297 298 299 300 301 302 303 304 305 306 307 308 309 310 311 312 313 314 315 316 317 318 319 320 321 322 323 324 325 326 327 328 329 331 332 333 334 335 336 337 338 339 340 341 342 343 344 345 346 363 364 365 366 367 368 369 370 371 372 373 374 375 376 377 378 379 380 381 382 383 384 385 386 387 388 389 390 391 392 393 394 395 396 397 398 399 400 401 402 403 404 405 406 407 408 409 410 411 412 413 414 415 416 417 418 419 420 421 422 423 424 425 426 427 428 429 430 431 432 434 435 436 437 438 439 440 441 442 443 444 445 446 447 448 449 518 519 520 521 526 527 528 529 534 535 536 537 542 543 544 545 550 555 560 565 566 567 572 0
5 0
107 0
-108 0
226 0
-227 0
329 0
-330 0
432 0
-433 0
-570 0
-571 0
572 0
-104 -72 0
-104 -73 0
-104 -74 0
-104 -75 0
-104 -76 0
-104 -77 0
-104 -78 0
-104 -79 0
-104 -80 0
-104 -81 0
-104 -82 0
-104 -83 0
-104 -84 0
-104 -85 0
-104 -86 0
-104 -103 0
-104 -89 0
-104 -92 0
-104 -94 0
-104 -96 0
-104 -97 0
-104 -99 0
-104 -100 0
-104 -102 0
-223 -191 0
-223 -192 0
-223 -193 0
-223 -194 0
-223 -195 0
-223 -196 0
-223 -197 0
-223 -198 0
-223 -199 0
-223 -200 0
-223 -201 0
-223 -202 0
-223 -203 0
-223 -204 0
-223 -205 0
-223 -206 0
-223 -207 0
-223 -209 0
-223 -210 0
-223 -213 0
-223 -214 0
-223 -215 0
-223 -216 0
-223 -218 0
-223 -219 0
-223 -220 0
-223 -221 0
-223 -222 0
-326 -294 0
-326 -295 0
-326 -296 0
-326 -297 0
-326 -298 0
-326 -299 0
-326 -300 0
-326 -301 0
-326 -302 0
-326 -303 0
-326 -304 0
-326 -305 0
-326 -306 0
-326 -307 0
-326 -308 0
-326 -309 0
-326 -310 0
-326 -311 0
-326 -312 0
-326 -313 0
-326 -314 0
-326 -315 0
-326 -316 0
-326 -318 0
-326 -319 0
-326 -320 0
-326 -321 0
-326 -325 0
-326 -324 0
-429 -397 0
-429 -398 0
-429 -399 0
-429 -400 0
-429 -401 0
-429 -402 0
-429 -403 0
-429 -404 0
-429 -405 0
-429 -406 0
-429 -407 0
-429 -408 0
-429 -409 0
-429 -410 0
-429 -411 0
-429 -412 0
-429 -413 0
-429 -414 0
-429 -416 0
-429 -420 0
-429 -428 0
-429 -423 0
-429 -424 0
-429 -425 0
-429 -427 0
17 33 -83 0
10 -263 264 0
11 -367 368 0
-15 31 81 0
-13 -251 -301 0
21 259 -311 0
352 367 -368 0
19 -272 273 0
11 -249 265 0
-21 -155 -170 223 551 552 553 554 0
-21 -156 -214 0
11 249 -299 0
-21 -37 -92 0
21 -37 89 0
-21 -156 -218 0
-8 -246 -296 0
-257 -272 273 0
-244 -245 261 0
-14 30 -46 0
15 150 -200 0
-10 -145 -195 0
-19 154 -170 0
-10 26 76 0
21 156 -219 0
-13 354 404 0
147 162 -163 0
-21 -37 -99 0
34 49 -50 0
-9 262 -263 0
20 -21 -51 104 546 547 548 549 0
-21 156 214 0
15 -31 81 0
20 36 -86 0
-21 -362 -427 0
17 -152 202 0
-12 353 -369 0
-16 151 -167 0
14 -45 46 0
18 256 -306 0
153 168 -169 0
18 -34 50 0
21 259 -318 0
360 375 -376 0
21 -156 216 0
18 -359 409 0
-6 -141 -191 0
-8 -349 -399 0
-10 -26 -76 0
16 151 -201 0
14 -355 371 0
14 30 -80 0
191 192 193 194 195 196 197 198 199 200 201 202 203 204 205 206 207 209 210 213 214 215 216 218 219 220 221 222 223 0
-21 -361 -376 429 561 562 563 564 0
-29 -44 45 0
-21 -362 -428 0
29 44 -45 0
-18 -34 -84 0
-21 259 319 0
-12 28 -44 0
-6 -22 -72 0
12 -250 300 0
7 -141 158 0
-9 159 -160 0
13 251 -301 0
-7 -142 -192 0
-10 366 -367 0
21 -37 100 0
21 -37 102 0
19 -360 410 0
-16 254 -270 0
16 -151 167 0
-12 -28 -78 0
12 -28 78 0
-13 -29 -79 0
-21 -259 -312 0
6 -244 294 0
7 -347 364 0
21 -259 313 0
-15 -31 -81 0
-21 -362 -412 0
-18 168 -169 0
17 -33 83 0
-13 369 -370 0
18 -256 306 0
148 163 -164 0
21 259 -325 0
-20 258 308 0
-21 37 89 0
-21 -37 -94 0
-14 -30 -80 0
8 -349 399 0
18 34 -84 0
-11 -146 -196 0
21 37 -94 0
-351 -366 367 0
253 268 -269 0
11 -146 162 0
-21 259 318 0
-18 271 -272 0
-14 149 199 0
11 -146 196 0
-258 259 -273 326 556 557 558 559 0
-20 -361 -411 0
21 362 -414 0
-7 -348 -398 0
-36 37 -51 104 546 547 548 549 0
-20 361 411 0
20 -155 156 551 552 553 554 0
20 -258 308 0
17 -167 168 0
9 350 -400 0
-21 37 102 0
11 -161 162 0
-18 256 306 0
13 29 -79 0
8 349 -399 0
-21 259 316 0
-147 -162 163 0
-12 -353 -403 0
-21 259 556 557 558 559 0
-16 254 304 0
-11 161 -162 0
20 -21 -361 561 562 563 564 0
16 -357 407 0
-8 246 296 0
-12 162 -163 0
21 -37 96 0
-19 360 410 0
21 156 -222 0
-13 354 -370 0
10 -26 76 0
8 246 -296 0
21 259 -319 0
21 156 -215 0
-19 257 -273 0
21 -37 92 0
-253 -268 269 0
-10 145 195 0
17 -48 49 0
-21 362 416 0
-11 -352 -402 0
20 37 -51 104 546 547 548 549 0
7 -142 158 0
397 398 399 400 401 402 403 404 405 406 407 408 409 410 411 412 413 414 416 420 423 424 425 427 428 429 0
-18 49 -50 0
19 -50 51 0
18 -359 375 0
-255 -270 271 0
20 -361 362 561 562 563 564 0
-14 267 -268 0
11 -352 402 0
-12 265 -266 0
13 -369 370 0
-8 364 -365 0
-21 -259 -313 0
-21 362 427 0
-21 -37 -97 0
21 259 -316 0
-6 -347 -397 0
15 -150 200 0
-10 41 -42 0
255 270 -271 0
-21 -156 -209 0
-8 246 -262 0
-21 362 561 562 563 564 0
15 -253 269 0
20 -36 86 0
6 -347 397 0
146 161 -162 0
-21 -258 -273 326 556 557 558 559 0
-24 -39 40 0
-21 -156 -207 0
-19 -257 -307 0
-21 156 220 0
13 -354 370 0
-21 156 216 0
16 -357 373 0
-254 -269 270 0
12 -250 266 0
16 -254 304 0
-18 256 -272 0
14 -149 199 0
32 47 -48 0
-21 -36 -51 104 546 547 548 549 0
13 -148 164 0
17 152 -202 0
-21 -362 -416 0
21 -156 221 0
15 -31 47 0
18 -168 169 0
-11 352 -368 0
12 -353 403 0
-19 -154 -204 0
-10 351 -367 0
-11 -27 -77 0
-13 29 79 0
-154 -169 170 0
246 261 -262 0
-17 358 408 0
-21 37 100 0
28 43 -44 0
12 -162 163 0
-9 365 -366 0
-19 -35 -85 0
-21 -259 -314 0
7 142 -192 0
12 -43 44 0
-150 -165 166 0
-16 269 -270 0
13 -251 301 0
-21 37 94 0
21 -259 321 0
12 -147 197 0
16 -32 82 0
-12 147 -163 0
17 -373 374 0
-21 259 311 0
21 -156 214 0
-11 -249 -299 0
13 -163 164 0
8 -246 262 0
21 362 -425 0
-7 23 -39 0
-16 151 201 0
-19 272 -273 0
-14 355 405 0
9 247 -297 0
-16 -32 -82 0
12 250 -300 0
21 156 -216 0
-21 -259 -318 0
20 -21 -170 223 551 552 553 554 0
-11 146 -162 0
11 27 -77 0
-21 -259 -316 0
6 -245 261 0
-21 -259 -321 0
9 -144 194 0
17 -358 374 0
21 156 -207 0
21 362 -416 0
-6 244 245 -261 0
-21 -259 -315 0
30 45 -46 0
349 364 -365 0
19 -35 51 0
18 -271 272 0
151 166 -167 0
-143 -158 159 0
20 -361 411 0
21 156 -214 0
15 31 -81 0
14 -30 80 0
-12 -250 -300 0
-12 -147 -197 0
-19 35 -51 0
19 -257 307 0
16 254 -304 0
-9 40 -41 0
-9 -350 -400 0
9 -25 41 0
-17 270 -271 0
-16 372 -373 0
-21 37 97 0
-21 259 314 0
6 22 -72 0
-8 39 -40 0
-16 32 -48 0
-10 145 -161 0
-14 -355 -405 0
-16 47 -48 0
-145 -160 161 0
-21 37 99 0
21 362 -412 0
7 245 -295 0
-17 33 83 0
-17 -358 -408 0
17 -270 271 0
8 143 -193 0
-21 37 92 0
14 -355 405 0
-12 250 -266 0
-8 143 193 0
20 -36 37 546 547 548 549 0
-14 164 -165 0
21 -259 316 0
9 -40 41 0
-8 -143 -193 0
9 -159 160 0
-6 22 72 0
-7 245 -261 0
21 362 -427 0
21 -156 213 0
21 -362 423 0
21 259 -315 0
-21 -156 -216 0
-11 146 196 0
18 -256 272 0
-152 -167 168 0
17 -358 408 0
-11 352 402 0
15 -356 406 0
-251 -266 267 0
-21 -362 -423 0
-6 141 191 0
7 -348 364 0
-10 -351 -401 0
-26 -41 42 0
8 -24 40 0
-10 351 401 0
-28 -43 44 0
21 -37 103 0
-352 -367 368 0
-21 259 325 0
-21 156 206 0
-144 -159 160 0
143 158 -159 0
19 360 -410 0
14 -267 268 0
20 156 -170 223 551 552 553 554 0
72 73 74 75 76 77 78 79 80 81 82 83 84 85 86 89 92 94 96 97 99 100 102 103 104 0
-21 -37 -103 0
20 -21 -36 546 547 548 549 0
-6 -7 141 -158 0
21 37 -100 0
18 153 -203 0
16 -32 48 0
21 -156 209 0
8 -143 159 0
21 37 -89 0
-246 -261 262 0
8 24 -74 0
10 -145 195 0
-17 255 -271 0
15 -150 166 0
16 357 -407 0
21 -259 320 0
-15 -150 -200 0
-19 -360 -410 0
20 361 -411 0
-349 -364 365 0
26 41 -42 0
-15 -253 -303 0
-17 -33 -83 0
19 154 -204 0
-21 156 215 0
-9 247 297 0
-358 -373 374 0
-18 359 -375 0
-17 48 -49 0
18 -374 375 0
14 -370 371 0
-21 362 413 0
-21 -259 -325 0
10 -351 367 0
-13 266 -267 0
-9 -247 -297 0
-10 -248 -298 0
18 -153 203 0
19 -154 204 0
21 37 -99 0
294 295 296 297 298 299 300 301 302 303 304 305 306 307 308 309 310 311 312 313 314 315 316 318 319 320 321 324 325 326 0
-21 -156 -220 0
19 -169 170 0
16 32 -82 0
-14 370 -371 0
11 -249 299 0
-11 264 -265 0
-21 -156 -222 0
-21 -362 -420 0
-13 29 -45 0
-21 259 312 0
7 -245 295 0
-35 -50 51 0
-13 148 198 0
-153 -168 169 0
-17 152 -168 0
-8 143 -159 0
-15 268 -269 0
10 -248 298 0
-21 -156 -221 0
-7 348 398 0
21 -259 310 0
247 262 -263 0
18 -153 169 0
-33 -48 49 0
-16 32 82 0
21 259 -321 0
-14 252 302 0
-7 -245 -295 0
21 156 -210 0
-21 -259 -310 0
-18 153 203 0
-6 22 23 -39 0
15 356 -406 0
-350 -365 366 0
-6 347 348 -364 0
-16 166 -167 0
-12 250 300 0
13 148 -198 0
252 267 -268 0
-17 33 -49 0
-21 156 210 0
-18 -256 -306 0
-8 158 -159 0
10 -26 42 0
14 252 -302 0
-15 356 406 0
-6 -7 22 -39 0
-21 259 315 0
9 -25 75 0
-6 -7 347 -364 0
12 147 -197 0
-14 -252 -302 0
21 -362 414 0
7 -142 192 0
-7 23 73 0
-11 27 77 0
-9 144 194 0
17 -152 168 0
21 -362 428 0
6 7 158 0
-21 259 320 0
17 -255 305 0
-16 357 407 0
21 -362 413 0
9 144 -194 0
21 362 -420 0
-21 156 213 0
-19 50 -51 0
-13 163 -164 0
-15 356 -372 0
10 -351 401 0
19 -154 170 0
-14 252 -268 0
-21 362 420 0
21 -259 324 0
-21 -156 -213 0
10 -248 264 0
21 -156 218 0
-12 28 78 0
9 -365 366 0
-18 -153 -203 0
16 -372 373 0
-14 45 -46 0
21 -362 427 0
13 -29 79 0
16 -166 167 0
-9 -25 -75 0
-21 362 424 0
-146 -161 162 0
21 259 -313 0
21 -37 97 0
-10 160 -161 0
-21 259 313 0
-6 -7 244 -261 0
13 354 -404 0
-6 -244 -294 0
21 156 -220 0
-21 -362 -413 0
-21 259 310 0
-19 360 -376 0
-11 27 -43 0
-15 371 -372 0
-6 347 397 0
11 -352 368 0
-247 -262 263 0
12 28 -78 0
20 -21 -258 556 557 558 559 0
18 -49 50 0
16 -151 201 0
-9 25 -41 0
-248 -263 264 0
-8 349 399 0
6 -141 191 0
-14 355 -371 0
-31 -46 47 0
19 -257 273 0
-19 154 204 0
21 -156 222 0
-12 43 -44 0
13 -44 45 0
-250 -265 266 0
-20 -155 -205 0
21 -362 416 0
359 374 -375 0
-15 31 -47 0
7 23 -73 0
-141 -142 158 0
-361 362 -376 429 561 562 563 564 0
7 -348 398 0
-13 148 -164 0
25 40 -41 0
-355 -370 371 0
-347 -348 364 0
-9 247 -263 0
-22 -23 39 0
-20 36 86 0
21 -259 319 0
-9 350 400 0
-354 -369 370 0
21 259 -312 0
21 37 -102 0
355 370 -371 0
20 258 -308 0
-15 46 -47 0
21 37 -103 0
6 141 -191 0
10 145 -195 0
-16 -357 -407 0
-7 245 295 0
7 -23 39 0
-32 -47 48 0
-27 -42 43 0
21 -156 220 0
-356 -371 372 0
21 156 -209 0
35 50 -51 0
-20 -36 -86 0
9 -262 263 0
-20 -258 -308 0
-17 167 -168 0
27 42 -43 0
9 -144 160 0
-15 150 200 0
10 -366 367 0
21 259 -309 0
21 362 -413 0
15 -253 303 0
20 -21 -376 429 561 562 563 564 0
17 358 -408 0
12 -368 369 0
-12 368 -369 0
13 -354 404 0
8 -364 365 0
6 7 364 0
21 37 -97 0
-10 248 298 0
13 -29 45 0
21 37 -92 0
-8 261 -262 0
19 -35 85 0
-7 -23 -73 0
-10 263 -264 0
-21 -156 -210 0
-21 156 219 0
-21 -37 -100 0
14 149 -199 0
21 -37 94 0
-8 24 -40 0
-21 362 425 0
350 365 -366 0
9 -247 263 0
12 -147 163 0
-19 169 -170 0
-17 152 202 0
-16 -151 -201 0
257 272 -273 0
-21 362 428 0
13 -148 198 0
-21 -259 -319 0
-148 -163 164 0
21 -37 99 0
-21 37 96 0
-256 -271 272 0
-21 156 209 0
7 -244 261 0
-149 -164 165 0
7 -245 261 0
16 -269 270 0
14 355 -405 0
11 146 -196 0
11 352 -402 0
20 259 -273 326 556 557 558 559 0
21 -259 314 0
7 348 -398 0
-249 -264 265 0
-13 -354 -404 0
-21 -259 -311 0
-21 259 309 0
351 366 -367 0
-21 -362 -414 0
11 -27 77 0
-20 155 205 0
21 -259 318 0
21 362 -423 0
-21 -37 -96 0
-11 367 -368 0
31 46 -47 0
6 -142 158 0
9 25 -75 0
10 351 -401 0
-8 349 -365 0
-21 156 222 0
-21 -156 -215 0
21 259 -314 0
20 155 -205 0
14 -252 302 0
-16 -254 -304 0
-18 359 409 0
154 169 -170 0
-12 353 403 0
16 -254 270 0
-21 156 221 0
-7 348 -364 0
248 263 -264 0
8 -246 296 0
-12 147 197 0
249 264 -265 0
-13 -148 -198 0
21 156 -221 0
-13 44 -45 0
19 -360 376 0
-21 259 321 0
21 259 -310 0
15 -356 372 0
12 -353 369 0
150 165 -166 0
21 37 -96 0
-21 37 103 0
-21 -156 -206 0
21 -259 325 0
-21 156 551 552 553 554 0
14 -252 268 0
-17 373 -374 0
149 164 -165 0
-9 350 -366 0
21 -156 219 0
-7 142 -158 0
6 347 -397 0
24 39 -40 0
-9 25 75 0
-6 141 142 -158 0
-18 153 -169 0
6 7 261 0
21 -156 215 0
17 -33 49 0
19 257 -307 0
-10 26 -42 0
-9 144 -160 0
20 -21 -155 551 552 553 554 0
10 -160 161 0
-15 150 -166 0
-353 -368 369 0
18 359 -409 0
21 -362 425 0
10 248 -298 0
15 253 -303 0
19 -375 376 0
21 -362 420 0
21 -156 207 0
251 266 -267 0
12 -265 266 0
-7 142 192 0
15 -165 166 0
21 -259 312 0
18 -34 84 0
11 -42 43 0
-360 -375 376 0
-18 34 84 0
20 362 -376 429 561 562 563 564 0
6 -23 39 0
13 -266 267 0
-11 249 299 0
21 -156 210 0
6 244 -294 0
10 -41 42 0
-14 -149 -199 0
-21 -259 -320 0
10 -145 161 0
6 7 39 0
-155 156 -170 223 551 552 553 554 0
14 -164 165 0
-21 -259 -324 0
-11 42 -43 0
-17 -152 -202 0
21 -259 309 0
-13 251 -267 0
250 265 -266 0
-21 -362 -425 0
-19 375 -376 0
-21 362 423 0
356 371 -372 0
21 259 -324 0
-16 357 -373 0
21 -259 315 0
-15 253 303 0
152 167 -168 0
354 369 -370 0
-252 -267 268 0
-21 -259 -309 0
15 -371 372 0
-19 257 307 0
15 -46 47 0
145 160 -161 0
-21 156 218 0
21 362 -428 0
6 -22 72 0
8 -349 365 0
21 -362 412 0
-17 255 305 0
-18 -359 -409 0
254 269 -270 0
6 -348 364 0
-6 244 294 0
9 -350 400 0
8 -158 159 0
-15 -356 -406 0
-10 248 -264 0
16 -47 48 0
-15 253 -269 0
-14 30 80 0
21 -156 206 0
12 353 -403 0
357 372 -373 0
-21 -362 -424 0
21 156 -206 0
-25 -40 41 0
8 -39 40 0
21 -259 311 0
11 -264 265 0
8 -261 262 0
12 -28 44 0
353 368 -369 0
14 -30 46 0
21 259 -320 0
-21 -37 -102 0
-21 37 546 547 548 549 0
-34 -49 50 0
20 -21 -273 326 556 557 558 559 0
-11 249 -265 0
7 -23 73 0
-18 34 -50 0
144 159 -160 0
-14 149 -165 0
21 362 -424 0
358 373 -374 0
-21 -37 -89 0
-19 35 85 0
-21 156 207 0
17 -255 271 0
17 255 -305 0
21 156 -218 0
33 48 -49 0
-359 -374 375 0
9 -247 297 0
-17 -255 -305 0
-357 -372 373 0
-8 -24 -74 0
20 -258 259 556 557 558 559 0
19 35 -85 0
21 156 -213 0
-151 -166 167 0
-17 358 -374 0
-21 362 414 0
-9 -144 -194 0
10 26 -76 0
13 -251 267 0
-18 374 -375 0
-21 -156 -219 0
11 -27 43 0
-13 251 301 0
14 -149 165 0
256 271 -272 0
20 -155 205 0
8 -24 74 0
-8 24 74 0
7 -22 39 0
21 -362 424 0
15 -268 269 0
-21 259 324 0
-21 362 412 0
9 -350 366 0
8 -143 193 0
-15 165 -166 0
-30 -45 46 0
-21 362 -429 0
21 -362 -429 0
21 -37 -104 0
-21 37 -104 0
21 -259 -326 0
-21 259 -326 0
-3 -6 331 0
3 -244 331 0
3 244 -331 0
-3 6 -331 0
-3 -7 332 0
3 -245 332 0
3 245 -332 0
-3 7 -332 0
-3 -8 333 0
3 -246 333 0
-3 8 -333 0
3 246 -333 0
-3 -9 334 0
3 -247 334 0
3 247 -334 0
-3 9 -334 0
-3 -10 335 0
3 -248 335 0
-3 10 -335 0
3 248 -335 0
-3 -11 336 0
3 -249 336 0
3 249 -336 0
-3 11 -336 0
3 -250 337 0
-3 -12 337 0
3 250 -337 0
-3 12 -337 0
3 -251 338 0
-3 -13 338 0
3 251 -338 0
-3 13 -338 0
-3 -14 339 0
3 -252 339 0
-3 14 -339 0
3 252 -339 0
3 -253 340 0
-3 -15 340 0
-3 15 -340 0
3 253 -340 0
-3 -16 341 0
3 -254 341 0
3 254 -341 0
-3 16 -341 0
-3 -17 342 0
3 -255 342 0
3 255 -342 0
-3 17 -342 0
-3 -18 343 0
3 -256 343 0
-3 18 -343 0
3 256 -343 0
-3 -19 344 0
3 -257 344 0
-3 19 -344 0
3 257 -344 0
3 -258 345 0
-3 -20 345 0
-3 20 -345 0
3 258 -345 0
-3 -21 346 0
3 -259 346 0
-3 21 -346 0
3 259 -346 0
-4 -6 434 0
4 -347 434 0
-4 6 -434 0
4 347 -434 0
4 -348 435 0
-4 -7 435 0
4 348 -435 0
-4 7 -435 0
4 -349 436 0
-4 -8 436 0
-4 8 -436 0
4 349 -436 0
-4 -9 437 0
4 -350 437 0
-4 9 -437 0
4 350 -437 0
4 -351 438 0
-4 -10 438 0
-4 10 -438 0
4 351 -438 0
4 -352 439 0
-4 -11 439 0
-4 11 -439 0
4 352 -439 0
-4 -12 440 0
4 -353 440 0
-4 12 -440 0
4 353 -440 0
-4 -13 441 0
4 -354 441 0
4 354 -441 0
-4 13 -441 0
-4 -14 442 0
4 -355 442 0
-4 14 -442 0
4 355 -442 0
-4 -15 443 0
4 -356 443 0
-4 15 -443 0
4 356 -443 0
-4 -16 444 0
4 -357 444 0
4 357 -444 0
-4 16 -444 0
4 -358 445 0
-4 -17 445 0
4 358 -445 0
-4 17 -445 0
4 -359 446 0
-4 -18 446 0
-4 18 -446 0
4 359 -446 0
-4 -19 447 0
4 -360 447 0
4 360 -447 0
-4 19 -447 0
4 -361 448 0
-4 -20 448 0
-4 20 -448 0
4 361 -448 0
4 -362 449 0
-4 -21 449 0
-4 21 -449 0
4 362 -449 0
-514 518 546 0
514 518 -546 0
-514 -518 -546 0
514 -518 546 0
515 519 -547 0
-515 519 547 0
515 -519 547 0
-515 -519 -547 0
516 520 -548 0
-516 520 548 0
-516 -520 -548 0
516 -520 548 0
517 521 -549 0
-517 521 549 0
-517 -521 -549 0
517 -521 549 0
522 526 -551 0
-522 526 551 0
522 -526 551 0
-522 -526 -551 0
523 527 -552 0
-523 527 552 0
-523 -527 -552 0
523 -527 552 0
524 528 -553 0
-524 528 553 0
-524 -528 -553 0
524 -528 553 0
525 529 -554 0
-525 529 554 0
525 -529 554 0
-525 -529 -554 0
530 534 -556 0
-530 534 556 0
530 -534 556 0
-530 -534 -556 0
531 535 -557 0
-531 535 557 0
531 -535 557 0
-531 -535 -557 0
532 536 -558 0
-532 536 558 0
-532 -536 -558 0
532 -536 558 0
-533 537 559 0
533 537 -559 0
533 -537 559 0
-533 -537 -559 0
-538 542 561 0
538 542 -561 0
-538 -542 -561 0
538 -542 561 0
-539 543 562 0
539 543 -562 0
539 -543 562 0
-539 -543 -562 0
540 544 -563 0
-540 544 563 0
540 -544 563 0
-540 -544 -563 0
-541 545 564 0
541 545 -564 0
541 -545 564 0
-541 -545 -564 0
566 -568 0
-566 568 0
567 -569 0
-567 569 0
3 327 0
-3 -327 0
4 430 0
-4 -430 0
-1 -6 125 0
1 -22 125 0
1 22 -125 0
-1 6 -125 0
-1 -7 126 0
1 -23 126 0
1 23 -126 0
-1 7 -126 0
-1 -8 127 0
1 -24 127 0
-1 8 -127 0
1 24 -127 0
1 -25 128 0
-1 -9 128 0
-1 9 -128 0
1 25 -128 0
-1 -10 129 0
1 -26 129 0
-1 10 -129 0
1 26 -129 0
1 -27 130 0
-1 -11 130 0
-1 11 -130 0
1 27 -130 0
1 -28 131 0
-1 -12 131 0
-1 12 -131 0
1 28 -131 0
1 -29 132 0
-1 -13 132 0
1 29 -132 0
-1 13 -132 0
1 -30 133 0
-1 -14 133 0
1 30 -133 0
-1 14 -133 0
-1 -15 134 0
1 -31 134 0
1 31 -134 0
-1 15 -134 0
-1 -16 135 0
1 -32 135 0
-1 16 -135 0
1 32 -135 0
1 -33 136 0
-1 -17 136 0
-1 17 -136 0
1 33 -136 0
1 -34 137 0
-1 -18 137 0
-1 18 -137 0
1 34 -137 0
1 -35 138 0
-1 -19 138 0
-1 19 -138 0
1 35 -138 0
1 -36 139 0
-1 -20 139 0
1 36 -139 0
-1 20 -139 0
1 -37 140 0
-1 -21 140 0
-1 21 -140 0
1 37 -140 0
2 -141 228 0
-2 -6 228 0
2 141 -228 0
-2 6 -228 0
-2 -7 229 0
2 -142 229 0
2 142 -229 0
-2 7 -229 0
2 -143 230 0
-2 -8 230 0
-2 8 -230 0
2 143 -230 0
2 -144 231 0
-2 -9 231 0
2 144 -231 0
-2 9 -231 0
-2 -10 232 0
2 -145 232 0
2 145 -232 0
-2 10 -232 0
-2 -11 233 0
2 -146 233 0
2 146 -233 0
-2 11 -233 0
2 -147 234 0
-2 -12 234 0
-2 12 -234 0
2 147 -234 0
2 -148 235 0
-2 -13 235 0
-2 13 -235 0
2 148 -235 0
-2 -14 236 0
2 -149 236 0
-2 14 -236 0
2 149 -236 0
-2 -15 237 0
2 -150 237 0
-2 15 -237 0
2 150 -237 0
2 -151 238 0
-2 -16 238 0
2 151 -238 0
-2 16 -238 0
-2 -17 239 0
2 -152 239 0
-2 17 -239 0
2 152 -239 0
-2 -18 240 0
2 -153 240 0
-2 18 -240 0
2 153 -240 0
-2 -19 241 0
2 -154 241 0
-2 19 -241 0
2 154 -241 0
2 -155 242 0
-2 -20 242 0
-2 20 -242 0
2 155 -242 0
-2 -21 243 0
2 -156 243 0
-2 21 -243 0
2 156 -243 0
1 105 0
-1 -105 0
2 224 0
-2 -224 0
106 -550 0
-106 105 0
-106 550 0
225 -555 0
-225 224 0
-225 555 0
431 -565 0
-431 430 0
-431 565 0
328 -560 0
-328 327 0
-328 560 0
430 -429 0
430 -396 0
430 -565 0
396 429 -430 0
105 -104 0
105 -71 0
105 -550 0
71 104 -105 0
224 -223 0
224 -190 0
224 -555 0
190 223 -224 0
327 -326 0
327 -293 0
327 -560 0
293 326 -327 0
546 547 548 549 550 0
-550 -549 0
-550 -546 0
-550 -547 0
-550 -548 0
71 104 -550 0
551 552 553 554 555 0
-555 -554 0
-555 -551 0
-555 -552 0
-555 -553 0
190 223 -555 0
556 557 558 559 560 0
-560 -559 0
-560 -556 0
-560 -557 0
-560 -558 0
293 326 -560 0
561 562 563 564 565 0
-565 -564 0
-565 -561 0
-565 -562 0
-565 -563 0
396 429 -565 0
69 70 71 0
-69 -70 71 0
71 104 546 547 548 549 0
69 -70 -71 0
-69 70 -71 0
291 292 293 0
-291 -292 293 0
293 326 556 557 558 559 0
291 -292 -293 0
-291 292 -293 0
394 395 396 0
-394 -395 396 0
396 429 561 562 563 564 0
394 -395 -396 0
-394 395 -396 0
188 189 190 0
-188 -189 190 0
190 223 551 552 553 554 0
188 -189 -190 0
-188 189 -190 0
-21 362 395 0
21 -362 395 0
-394 395 429 561 562 563 564 0
-21 -362 -395 0
21 362 -395 0
394 -395 429 561 562 563 564 0
21 -37 70 0
-21 37 70 0
-69 70 104 546 547 548 549 0
21 37 -70 0
-21 -37 -70 0
69 -70 104 546 547 548 549 0
-21 259 292 0
21 -259 292 0
-291 292 326 556 557 558 559 0
-21 -259 -292 0
21 259 -292 0
291 -292 326 556 557 558 559 0
21 -156 189 0
-21 156 189 0
-188 189 223 551 552 553 554 0
-21 -156 -189 0
21 156 -189 0
188 -189 223 551 552 553 554 0
-7 260 -261 0
245 260 -261 0
260 6 0
260 -244 0
-245 -260 261 0
7 -260 261 0
-6 244 -260 0
-7 157 -158 0
142 157 -158 0
157 -141 0
157 6 0
7 -157 158 0
-142 -157 158 0
-6 141 -157 0
-7 363 -364 0
348 363 -364 0
363 -347 0
363 6 0
-348 -363 364 0
7 -363 364 0
-6 347 -363 0
23 38 -39 0
-7 38 -39 0
38 -22 0
38 6 0
7 -38 39 0
-23 -38 39 0
-6 22 -38 0
21 -68 69 0
-37 -68 69 0
21 -37 69 0
37 68 -69 0
-21 68 -69 0
-21 37 -69 0
37 -69 104 546 547 548 549 0
-21 -69 104 546 547 548 549 0
-21 -290 291 0
259 -290 291 0
21 -259 291 0
259 290 -291 0
-21 290 -291 0
-21 259 -291 0
259 -291 326 556 557 558 559 0
-21 -291 326 556 557 558 559 0
-21 -187 188 0
156 -187 188 0
21 -156 188 0
156 187 -188 0
-21 187 -188 0
-21 156 -188 0
156 -188 223 551 552 553 554 0
-21 -188 223 551 552 553 554 0
37 -67 68 0
-21 -67 68 0
21 -37 68 0
-21 67 -68 0
37 67 -68 0
-21 37 -68 0
-21 -68 104 546 547 548 549 0
37 -68 104 546 547 548 549 0
-21 -393 394 0
362 -393 394 0
21 -362 394 0
362 393 -394 0
-21 393 -394 0
-21 362 -394 0
362 -394 429 561 562 563 564 0
-21 -394 429 561 562 563 564 0
-21 -66 67 0
37 -66 67 0
21 -37 67 0
-21 66 -67 0
37 66 -67 0
-21 -67 104 546 547 548 549 0
-21 37 -67 0
37 -67 104 546 547 548 549 0
-21 -392 393 0
362 -392 393 0
21 -362 393 0
-21 392 -393 0
362 392 -393 0
-21 -393 429 561 562 563 564 0
-21 362 -393 0
362 -393 429 561 562 563 564 0
37 -65 66 0
-21 -65 66 0
21 -37 66 0
-21 65 -66 0
37 65 -66 0
-21 -66 104 546 547 548 549 0
-21 37 -66 0
37 -66 104 546 547 548 549 0
362 -391 392 0
-21 -391 392 0
21 -362 392 0
362 391 -392 0
-21 391 -392 0
-21 -392 429 561 562 563 564 0
-21 362 -392 0
362 -392 429 561 562 563 564 0
-21 -64 65 0
37 -64 65 0
21 -37 65 0
-21 64 -65 0
37 64 -65 0
-21 -65 104 546 547 548 549 0
-21 37 -65 0
37 -65 104 546 547 548 549 0
-21 -390 391 0
362 -390 391 0
21 -362 391 0
362 390 -391 0
-21 390 -391 0
-21 -391 429 561 562 563 564 0
-21 362 -391 0
362 -391 429 561 562 563 564 0
259 -289 290 0
-21 -289 290 0
21 -259 290 0
259 289 -290 0
-21 289 -290 0
-21 -290 326 556 557 558 559 0
-21 259 -290 0
259 -290 326 556 557 558 559 0
156 -186 187 0
-21 -186 187 0
21 -156 187 0
-21 186 -187 0
156 186 -187 0
-21 -187 223 551 552 553 554 0
-21 156 -187 0
156 -187 223 551 552 553 554 0
37 -63 64 0
-21 -63 64 0
21 -37 64 0
37 63 -64 0
-21 63 -64 0
-21 -64 104 546 547 548 549 0
-21 37 -64 0
37 -64 104 546 547 548 549 0
156 -185 186 0
-21 -185 186 0
21 -156 186 0
156 185 -186 0
-21 185 -186 0
-21 -186 223 551 552 553 554 0
-21 156 -186 0
156 -186 223 551 552 553 554 0
-21 -288 289 0
259 -288 289 0
21 -259 289 0
-21 288 -289 0
259 288 -289 0
-21 -289 326 556 557 558 559 0
-21 259 -289 0
259 -289 326 556 557 558 559 0
-21 -389 390 0
362 -389 390 0
21 -362 390 0
-21 389 -390 0
362 389 -390 0
-21 -390 429 561 562 563 564 0
-21 362 -390 0
362 -390 429 561 562 563 564 0
-21 -184 185 0
156 -184 185 0
21 -156 185 0
156 184 -185 0
-21 184 -185 0
-21 -185 223 551 552 553 554 0
-21 156 -185 0
156 -185 223 551 552 553 554 0
-21 -287 288 0
259 -287 288 0
21 -259 288 0
-21 287 -288 0
259 287 -288 0
-21 -288 326 556 557 558 559 0
-21 259 -288 0
259 -288 326 556 557 558 559 0
-21 -183 184 0
156 -183 184 0
21 -156 184 0
-21 183 -184 0
156 183 -184 0
-21 -184 223 551 552 553 554 0
-21 156 -184 0
156 -184 223 551 552 553 554 0
37 -62 63 0
-21 -62 63 0
21 -37 63 0
37 62 -63 0
-21 62 -63 0
-21 -63 104 546 547 548 549 0
-21 37 -63 0
37 -63 104 546 547 548 549 0
-21 -182 183 0
156 -182 183 0
21 -156 183 0
-21 182 -183 0
156 182 -183 0
-21 -183 223 551 552 553 554 0
-21 156 -183 0
156 -183 223 551 552 553 554 0
-21 -61 62 0
37 -61 62 0
21 -37 62 0
-21 61 -62 0
37 61 -62 0
-21 -62 104 546 547 548 549 0
-21 37 -62 0
37 -62 104 546 547 548 549 0
-21 -181 182 0
156 -181 182 0
21 -156 182 0
156 181 -182 0
-21 181 -182 0
-21 -182 223 551 552 553 554 0
-21 156 -182 0
156 -182 223 551 552 553 554 0
-21 -60 61 0
37 -60 61 0
21 -37 61 0
-21 60 -61 0
37 60 -61 0
-21 -61 104 546 547 548 549 0
-21 37 -61 0
37 -61 104 546 547 548 549 0
-21 -180 181 0
156 -180 181 0
21 -156 181 0
-21 180 -181 0
156 180 -181 0
-21 -181 223 551 552 553 554 0
-21 156 -181 0
156 -181 223 551 552 553 554 0
-21 -59 60 0
37 -59 60 0
21 -37 60 0
37 59 -60 0
-21 59 -60 0
-21 -60 104 546 547 548 549 0
-21 37 -60 0
37 -60 104 546 547 548 549 0
156 -179 180 0
-21 -179 180 0
21 -156 180 0
156 179 -180 0
-21 179 -180 0
-21 -180 223 551 552 553 554 0
-21 156 -180 0
156 -180 223 551 552 553 554 0
-21 -58 59 0
37 -58 59 0
21 -37 59 0
-21 58 -59 0
37 58 -59 0
-21 -59 104 546 547 548 549 0
-21 37 -59 0
37 -59 104 546 547 548 549 0
156 -178 179 0
-21 -178 179 0
21 -156 179 0
-21 178 -179 0
156 178 -179 0
-21 -179 223 551 552 553 554 0
-21 156 -179 0
156 -179 223 551 552 553 554 0
-21 -286 287 0
259 -286 287 0
21 -259 287 0
-21 286 -287 0
259 286 -287 0
-21 -287 326 556 557 558 559 0
-21 259 -287 0
259 -287 326 556 557 558 559 0
-21 -57 58 0
37 -57 58 0
21 -37 58 0
37 57 -58 0
-21 57 -58 0
-21 -58 104 546 547 548 549 0
-21 37 -58 0
37 -58 104 546 547 548 549 0
-21 -177 178 0
156 -177 178 0
21 -156 178 0
156 177 -178 0
-21 177 -178 0
-21 -178 223 551 552 553 554 0
-21 156 -178 0
156 -178 223 551 552 553 554 0
37 -56 57 0
-21 -56 57 0
21 -37 57 0
37 56 -57 0
-21 56 -57 0
-21 -57 104 546 547 548 549 0
-21 37 -57 0
37 -57 104 546 547 548 549 0
-21 -285 286 0
259 -285 286 0
21 -259 286 0
-21 285 -286 0
259 285 -286 0
-21 -286 326 556 557 558 559 0
-21 259 -286 0
259 -286 326 556 557 558 559 0
-21 -55 56 0
37 -55 56 0
21 -37 56 0
37 55 -56 0
-21 55 -56 0
-21 -56 104 546 547 548 549 0
-21 37 -56 0
37 -56 104 546 547 548 549 0
156 -176 177 0
-21 -176 177 0
21 -156 177 0
156 176 -177 0
-21 176 -177 0
-21 -177 223 551 552 553 554 0
-21 156 -177 0
156 -177 223 551 552 553 554 0
37 -54 55 0
-21 -54 55 0
21 -37 55 0
-21 54 -55 0
37 54 -55 0
-21 -55 104 546 547 548 549 0
-21 37 -55 0
37 -55 104 546 547 548 549 0
259 -284 285 0
-21 -284 285 0
21 -259 285 0
259 284 -285 0
-21 284 -285 0
-21 -285 326 556 557 558 559 0
-21 259 -285 0
259 -285 326 556 557 558 559 0
37 -53 54 0
-21 -53 54 0
21 -37 54 0
-21 53 -54 0
37 53 -54 0
-21 -54 104 546 547 548 549 0
-21 37 -54 0
37 -54 104 546 547 548 549 0
-21 -283 284 0
259 -283 284 0
21 -259 284 0
259 283 -284 0
-21 283 -284 0
-21 -284 326 556 557 558 559 0
-21 259 -284 0
259 -284 326 556 557 558 559 0
-37 -52 53 0
21 -52 53 0
21 -37 53 0
37 52 -53 0
-21 52 -53 0
-21 -53 104 546 547 548 549 0
-21 37 -53 0
37 -53 104 546 547 548 549 0
-21 -175 176 0
156 -175 176 0
21 -156 176 0
-21 175 -176 0
156 175 -176 0
-21 -176 223 551 552 553 554 0
-21 156 -176 0
156 -176 223 551 552 553 554 0
-36 -51 52 0
20 -51 52 0
20 -36 52 0
36 51 -52 0
-20 51 -52 0
-20 36 -52 0
-21 -52 104 546 547 548 549 0
37 -52 104 546 547 548 549 0
-21 -174 175 0
156 -174 175 0
21 -156 175 0
156 174 -175 0
-21 174 -175 0
-21 -175 223 551 552 553 554 0
-21 156 -175 0
156 -175 223 551 552 553 554 0
-21 -388 389 0
362 -388 389 0
21 -362 389 0
362 388 -389 0
-21 388 -389 0
-21 -389 429 561 562 563 564 0
-21 362 -389 0
362 -389 429 561 562 563 564 0
156 -173 174 0
-21 -173 174 0
21 -156 174 0
-21 173 -174 0
156 173 -174 0
-21 -174 223 551 552 553 554 0
-21 156 -174 0
156 -174 223 551 552 553 554 0
-21 -387 388 0
362 -387 388 0
21 -362 388 0
-21 387 -388 0
362 387 -388 0
-21 -388 429 561 562 563 564 0
-21 362 -388 0
362 -388 429 561 562 563 564 0
259 -282 283 0
-21 -282 283 0
21 -259 283 0
259 282 -283 0
-21 282 -283 0
-21 -283 326 556 557 558 559 0
-21 259 -283 0
259 -283 326 556 557 558 559 0
362 -386 387 0
-21 -386 387 0
21 -362 387 0
-21 386 -387 0
362 386 -387 0
-21 -387 429 561 562 563 564 0
-21 362 -387 0
362 -387 429 561 562 563 564 0
156 -172 173 0
-21 -172 173 0
21 -156 173 0
-21 172 -173 0
156 172 -173 0
-21 -173 223 551 552 553 554 0
-21 156 -173 0
156 -173 223 551 552 553 554 0
-21 -385 386 0
362 -385 386 0
21 -362 386 0
362 385 -386 0
-21 385 -386 0
-21 -386 429 561 562 563 564 0
-21 362 -386 0
362 -386 429 561 562 563 564 0
-21 -281 282 0
259 -281 282 0
21 -259 282 0
259 281 -282 0
-21 281 -282 0
-21 -282 326 556 557 558 559 0
-21 259 -282 0
259 -282 326 556 557 558 559 0
21 -171 172 0
-156 -171 172 0
21 -156 172 0
156 171 -172 0
-21 171 -172 0
-21 -172 223 551 552 553 554 0
-21 156 -172 0
156 -172 223 551 552 553 554 0
-21 -384 385 0
362 -384 385 0
21 -362 385 0
-21 384 -385 0
362 384 -385 0
-21 -385 429 561 562 563 564 0
-21 362 -385 0
362 -385 429 561 562 563 564 0
-155 -170 171 0
20 -170 171 0
20 -155 171 0
155 170 -171 0
-20 170 -171 0
-20 155 -171 0
-21 -171 223 551 552 553 554 0
156 -171 223 551 552 553 554 0
362 -383 384 0
-21 -383 384 0
21 -362 384 0
362 383 -384 0
-21 383 -384 0
-21 -384 429 561 562 563 564 0
-21 362 -384 0
362 -384 429 561 562 563 564 0
259 -280 281 0
-21 -280 281 0
21 -259 281 0
259 280 -281 0
-21 280 -281 0
-21 -281 326 556 557 558 559 0
-21 259 -281 0
259 -281 326 556 557 558 559 0
362 -382 383 0
-21 -382 383 0
21 -362 383 0
362 382 -383 0
-21 382 -383 0
-21 -383 429 561 562 563 564 0
-21 362 -383 0
362 -383 429 561 562 563 564 0
-21 -279 280 0
259 -279 280 0
21 -259 280 0
259 279 -280 0
-21 279 -280 0
-21 -280 326 556 557 558 559 0
-21 259 -280 0
259 -280 326 556 557 558 559 0
-21 -381 382 0
362 -381 382 0
21 -362 382 0
362 381 -382 0
-21 381 -382 0
-21 -382 429 561 562 563 564 0
-21 362 -382 0
362 -382 429 561 562 563 564 0
-21 -278 279 0
259 -278 279 0
21 -259 279 0
-21 278 -279 0
259 278 -279 0
-21 -279 326 556 557 558 559 0
-21 259 -279 0
259 -279 326 556 557 558 559 0
362 -380 381 0
-21 -380 381 0
21 -362 381 0
-21 380 -381 0
362 380 -381 0
-21 -381 429 561 562 563 564 0
-21 362 -381 0
362 -381 429 561 562 563 564 0
259 -277 278 0
-21 -277 278 0
21 -259 278 0
259 277 -278 0
-21 277 -278 0
-21 -278 326 556 557 558 559 0
-21 259 -278 0
259 -278 326 556 557 558 559 0
362 -379 380 0
-21 -379 380 0
21 -362 380 0
362 379 -380 0
-21 379 -380 0
-21 -380 429 561 562 563 564 0
-21 362 -380 0
362 -380 429 561 562 563 564 0
-21 -276 277 0
259 -276 277 0
21 -259 277 0
259 276 -277 0
-21 276 -277 0
-21 -277 326 556 557 558 559 0
-21 259 -277 0
259 -277 326 556 557 558 559 0
-21 -378 379 0
362 -378 379 0
21 -362 379 0
-21 378 -379 0
362 378 -379 0
-21 -379 429 561 562 563 564 0
-21 362 -379 0
362 -379 429 561 562 563 564 0
259 -275 276 0
-21 -275 276 0
21 -259 276 0
259 275 -276 0
-21 275 -276 0
-21 -276 326 556 557 558 559 0
-21 259 -276 0
259 -276 326 556 557 558 559 0
-362 -377 378 0
21 -377 378 0
21 -362 378 0
-21 377 -378 0
362 377 -378 0
-21 -378 429 561 562 563 564 0
-21 362 -378 0
362 -378 429 561 562 563 564 0
-259 -274 275 0
21 -274 275 0
21 -259 275 0
259 274 -275 0
-21 274 -275 0
-21 -275 326 556 557 558 559 0
-21 259 -275 0
259 -275 326 556 557 558 559 0
-361 -376 377 0
20 -376 377 0
20 -361 377 0
361 376 -377 0
-20 376 -377 0
-20 361 -377 0
-21 -377 429 561 562 563 564 0
362 -377 429 561 562 563 564 0
20 -273 274 0
-258 -273 274 0
20 -258 274 0
-20 273 -274 0
258 273 -274 0
-20 258 -274 0
-21 -274 326 556 557 558 559 0
259 -274 326 556 557 558 559 0
21 -37 91 0
-21 37 91 0
-91 -104 0
21 37 -91 0
-21 -37 -91 0
21 -37 93 0
-21 37 93 0
-93 -104 0
-21 -37 -93 0
21 37 -93 0
-21 37 95 0
21 -37 95 0
-95 -104 0
21 37 -95 0
-21 -37 -95 0
21 -156 212 0
-21 156 212 0
-212 -223 0
21 156 -212 0
-21 -156 -212 0
21 -156 217 0
-21 156 217 0
-217 -223 0
-21 -156 -217 0
21 156 -217 0
-21 362 415 0
21 -362 415 0
-415 -429 0
-21 -362 -415 0
21 362 -415 0
21 -362 418 0
-21 362 418 0
-418 -429 0
-21 -362 -418 0
21 362 -418 0
21 -362 421 0
-21 362 421 0
-421 -429 0
-21 -362 -421 0
21 362 -421 0
-21 362 426 0
21 -362 426 0
-426 -429 0
-21 -362 -426 0
21 362 -426 0
21 -156 208 0
-21 156 208 0
-208 -223 0
21 156 -208 0
-21 -156 -208 0
21 -259 323 0
-21 259 323 0
-323 -326 0
21 259 -323 0
-21 -259 -323 0
-21 362 417 0
21 -362 417 0
-417 -429 0
21 362 -417 0
-21 -362 -417 0
21 -362 419 0
-21 362 419 0
-419 -429 0
21 362 -419 0
-21 -362 -419 0
21 -37 88 0
-21 37 88 0
-88 -104 0
21 37 -88 0
-21 -37 -88 0
21 -37 98 0
-21 37 98 0
-98 -104 0
-21 -37 -98 0
21 37 -98 0
21 -156 211 0
-21 156 211 0
-211 -223 0
21 156 -211 0
-21 -156 -211 0
-21 37 101 0
21 -37 101 0
-101 -104 0
-21 -37 -101 0
21 37 -101 0
-21 259 317 0
21 -259 317 0
-317 -326 0
21 259 -317 0
-21 -259 -317 0
21 -37 87 0
-21 37 87 0
-87 -104 0
-21 -37 -87 0
21 37 -87 0
-21 362 422 0
21 -362 422 0
-422 -429 0
21 362 -422 0
-21 -362 -422 0
21 -37 90 0
-21 37 90 0
-90 -104 0
21 37 -90 0
-21 -37 -90 0
21 -259 322 0
-21 259 322 0
-322 -326 0
21 259 -322 0
-21 -259 -322 0
